NAME: tsp_207
COMMENT: Random TSP instance
TYPE: TSP
DIMENSION: 50
EDGE_WEIGHT_TYPE: EUC_2D
NODE_COORD_SECTION
1 820 250
2 534 195
3 92 356
4 976 339
5 916 256
6 215 933
7 941 636
8 367 708
9 558 521
10 227 486
11 573 221
12 172 219
13 538 789
14 848 734
15 970 870
16 292 1000
17 268 447
18 358 318
19 59 193
20 240 43
21 903 269
22 277 233
23 189 726
24 207 833
25 99 189
26 813 162
27 128 561
28 524 287
29 47 902
30 610 728
31 32 882
32 822 812
33 489 200
34 457 902
35 25 223
36 162 868
37 673 841
38 535 833
39 776 347
40 21 523
41 293 727
42 115 798
43 424 829
44 688 78
45 544 331
46 5 644
47 476 448
48 832 320
49 907 450
50 797 962
